Solver command line: ['/usr/local/bin/gurobi.sh']

Set parameter WLSAccessID
Set parameter WLSSecret
Set parameter LicenseID to value 2606900
Academic license 2606900 - for non-commercial use only - registered to so___@htwk-leipzig.de
Read LP format model from file /var/folders/jf/5sh4zzv94dxbcz8g7tg2jq5h0000gn/T/tmp7sbwdgxs.pyomo.lp
Reading time = 2.13 seconds
objective: 967944 rows, 875999 columns, 2185566 nonzeros
Set parameter MIPGap to value 0.02
Gurobi Optimizer version 12.0.1 build v12.0.1rc0 (mac64[rosetta2] - Darwin 24.4.0 24E263)

CPU model: Apple M3
Thread count: 8 physical cores, 8 logical processors, using up to 8 threads

Non-default parameters:
MIPGap  0.02

Academic license 2606900 - for non-commercial use only - registered to so___@htwk-leipzig.de
Optimize a model with 967944 rows, 875999 columns and 2185566 nonzeros
Model fingerprint: 0x424abfd1
Model has 8759 quadratic constraints
Variable types: 753360 continuous, 122639 integer (105120 binary)
Coefficient statistics:
  Matrix range     [7e-03, 2e+02]
  QMatrix range    [1e+00, 1e+00]
  Objective range  [1e-02, 5e+02]
  Bounds range     [1e+00, 3e+00]
  RHS range        [8e-05, 1e+04]
Presolve removed 774590 rows and 656360 columns
Presolve time: 0.45s
Presolved: 193354 rows, 219639 columns, 611892 nonzeros
Variable types: 145221 continuous, 74418 integer (65658 binary)
Performing another presolve...
Presolve removed 70088 rows and 70088 columns
Presolve time: 4.87s
Deterministic concurrent LP optimizer: primal and dual simplex
Showing primal log only...


Root simplex log...

Iteration    Objective       Primal Inf.    Dual Inf.      Time
       0    5.9350960e+07   4.953380e+06   7.046599e+13      6s
Concurrent spin time: 0.00s

Solved with dual simplex

Root simplex log...

Iteration    Objective       Primal Inf.    Dual Inf.      Time
   70173    4.7934183e+07   0.000000e+00   0.000000e+00      9s

Root relaxation: objective 4.793418e+07, 70173 iterations, 2.89 seconds (4.41 work units)
Total elapsed time = 9.00s (DegenMoves)

    Nodes    |    Current Node    |     Objective Bounds      |     Work
 Expl Unexpl |  Obj  Depth IntInf | Incumbent    BestBd   Gap | It/Node Time

     0     0 4.7934e+07    0  369          - 4.7934e+07      -     -   10s
H    0     0                    4.808998e+07 4.7934e+07  0.32%     -   10s

Explored 1 nodes (75599 simplex iterations) in 11.00 seconds (19.24 work units)
Thread count was 8 (of 8 available processors)

Solution count 1: 4.809e+07 

Optimal solution found (tolerance 2.00e-02)
Best objective 4.808997854760e+07, best bound 4.793418345349e+07, gap 0.3240%

